141103
91, 79, 43, 58, 1, 87, 44, 66, 59, 10, 27, 28, 76, 24, 102, 74, 34, 83, 57, 80, 89, 93, 12, 23, 92, 9, 8, 97, 106, 98, 31, 65, 52, 55, 29, 30, 5, 13, 88, 69, 40, 20, 56, 16, 64, 90, 17, 21, 77, 46, 86, 22, 62, 104, 38, 70, 54, 95, 36, 71, 105, 101, 94, 3, 78, 96, 60, 25, 45, 82, 33, 53, 84, 39, 37, 49, 18, 7, 32, 63, 75, 15, 4, 61, 47, 99, 81, 42, 19, 68, 50, 26, 14, 103, 35, 51, 100, 72, 2, 73, 48, 85, 11, 41, 67, 6
